
Gurobi 9.0.1 (linux64) logging started Thu Apr 30 21:58:35 2020

Gurobi Optimizer version 9.0.1 build v9.0.1rc0 (linux64)
Optimize a model with 32222 rows, 27380 columns and 603960 nonzeros
Model fingerprint: 0xae45e0b8
Variable types: 0 continuous, 27380 integer (27342 binary)
Coefficient statistics:
  Matrix range     [1e+00, 2e+01]
  Objective range  [1e+00, 1e+02]
  Bounds range     [1e+00, 1e+00]
  RHS range        [1e+00, 1e+00]

User MIP start produced solution with objective 1199 (0.78s)
Loaded user MIP start with objective 1199

Presolve removed 14186 rows and 9387 columns (presolve time = 5s) ...
Presolve removed 14228 rows and 9447 columns
Presolve time: 9.77s
Presolved: 17994 rows, 17933 columns, 501060 nonzeros
Variable types: 0 continuous, 17933 integer (17897 binary)

Root simplex log...

Iteration    Objective       Primal Inf.    Dual Inf.      Time
       0    0.0000000e+00   1.940000e+02   0.000000e+00     12s
    2394    5.8533341e+02   2.666063e+04   0.000000e+00     15s
    4137    5.9013212e+02   5.225723e+03   0.000000e+00     20s
    5631    5.9408207e+02   3.072504e+04   0.000000e+00     25s
    7125    5.9730415e+02   6.097640e+03   0.000000e+00     30s
    8619    5.9844186e+02   8.097414e+03   0.000000e+00     35s
   10030    6.0068256e+02   3.557999e+03   0.000000e+00     40s
   11524    6.0323753e+02   1.451889e+04   0.000000e+00     45s
   12849    6.0574521e+02   5.546512e+03   0.000000e+00     50s
   13928    6.0688270e+02   1.921264e+04   0.000000e+00     55s
   15007    6.0904887e+02   3.397256e+03   0.000000e+00     60s
   16086    6.1126157e+02   3.438561e+03   0.000000e+00     65s
   17165    6.1217314e+02   4.479034e+02   0.000000e+00     70s
   18320    6.1273084e+02   3.930327e+02   0.000000e+00     75s
   19495    6.1352915e+02   1.676521e+03   0.000000e+00     80s
   20617    6.1405137e+02   9.809371e+02   0.000000e+00     85s
   21710    6.1484196e+02   1.913139e+02   0.000000e+00     90s
   22742    6.1531524e+02   3.524431e+02   0.000000e+00     95s
   23755    6.1578570e+02   1.761089e+04   0.000000e+00    100s
   24836    6.1619581e+02   6.189937e+02   0.000000e+00    105s
   25794    6.1642459e+02   4.333532e+03   0.000000e+00    110s
   26925    6.1655558e+02   2.684803e+02   0.000000e+00    115s
   27862    6.1662863e+02   0.000000e+00   0.000000e+00    120s

Root relaxation: objective 6.166286e+02, 27862 iterations, 109.20 seconds
Total elapsed time = 120.70s

    Nodes    |    Current Node    |     Objective Bounds      |     Work
 Expl Unexpl |  Obj  Depth IntInf | Incumbent    BestBd   Gap | It/Node Time

     0     0  616.62863    0 1842 1199.00000  616.62863  48.6%     -  128s
     0     0  660.40352    0 1898 1199.00000  660.40352  44.9%     -  244s
     0     0  666.85020    0 1942 1199.00000  666.85020  44.4%     -  301s
     0     0  667.57898    0 1912 1199.00000  667.57898  44.3%     -  328s
     0     0  667.59414    0 1917 1199.00000  667.59414  44.3%     -  332s
     0     0  667.59580    0 1905 1199.00000  667.59580  44.3%     -  335s
     0     0  671.02334    0 1881 1199.00000  671.02334  44.0%     -  411s
     0     0  671.83090    0 1979 1199.00000  671.83090  44.0%     -  453s
     0     0  671.94026    0 1962 1199.00000  671.94026  44.0%     -  468s
     0     0  671.95979    0 1956 1199.00000  671.95979  44.0%     -  474s
     0     0  671.96166    0 1962 1199.00000  671.96166  44.0%     -  477s
     0     0  683.47660    0 1903 1199.00000  683.47660  43.0%     -  622s
     0     0  684.16883    0 1923 1199.00000  684.16883  42.9%     -  666s
     0     0  684.51796    0 1915 1199.00000  684.51796  42.9%     -  700s
     0     0  684.57908    0 1932 1199.00000  684.57908  42.9%     -  712s
     0     0  684.61000    0 1912 1199.00000  684.61000  42.9%     -  722s
     0     0  684.61671    0 1922 1199.00000  684.61671  42.9%     -  726s
     0     0  691.26800    0 1959 1199.00000  691.26800  42.3%     -  870s
     0     0  691.51415    0 1931 1199.00000  691.51415  42.3%     -  904s
     0     0  691.55959    0 1953 1199.00000  691.55959  42.3%     -  911s
     0     0  691.56629    0 1963 1199.00000  691.56629  42.3%     -  915s
     0     0  692.70983    0 1955 1199.00000  692.70983  42.2%     -  965s
     0     0  692.78129    0 1944 1199.00000  692.78129  42.2%     -  995s
     0     0  692.79026    0 1954 1199.00000  692.79026  42.2%     - 1000s
     0     0  693.52451    0 1999 1199.00000  693.52451  42.2%     - 1048s
     0     0  693.59985    0 1977 1199.00000  693.59985  42.2%     - 1081s
     0     0  693.61902    0 1996 1199.00000  693.61902  42.2%     - 1088s
     0     0  693.62142    0 1998 1199.00000  693.62142  42.2%     - 1092s
     0     0  694.82750    0 1974 1199.00000  694.82750  42.0%     - 1153s
     0     0  694.97430    0 1989 1199.00000  694.97430  42.0%     - 1176s
     0     0  694.99920    0 1990 1199.00000  694.99920  42.0%     - 1186s
     0     0  695.01694    0 1994 1199.00000  695.01694  42.0%     - 1193s
     0     0  695.02183    0 1996 1199.00000  695.02183  42.0%     - 1197s
     0     0  695.76560    0 1994 1199.00000  695.76560  42.0%     - 1244s
     0     0  695.82424    0 1984 1199.00000  695.82424  42.0%     - 1260s
     0     0  695.87633    0 1988 1199.00000  695.87633  42.0%     - 1271s
     0     0  695.88113    0 1995 1199.00000  695.88113  42.0%     - 1276s
     0     0  696.53986    0 1971 1199.00000  696.53986  41.9%     - 1320s
     0     0  696.67191    0 1970 1199.00000  696.67191  41.9%     - 1340s
     0     0  696.68750    0 2001 1199.00000  696.68750  41.9%     - 1348s
     0     0  697.52162    0 2028 1199.00000  697.52162  41.8%     - 1400s
     0     0  697.67125    0 2045 1199.00000  697.67125  41.8%     - 1420s
     0     0  697.69413    0 2044 1199.00000  697.69413  41.8%     - 1429s
     0     0  697.70204    0 2053 1199.00000  697.70204  41.8%     - 1436s
     0     0  698.05707    0 2066 1199.00000  698.05707  41.8%     - 1472s
     0     0  698.11537    0 2074 1199.00000  698.11537  41.8%     - 1516s
     0     0  698.12733    0 2078 1199.00000  698.12733  41.8%     - 1523s
     0     0  698.29439    0 2060 1199.00000  698.29439  41.8%     - 1555s
     0     0  698.31003    0 2086 1199.00000  698.31003  41.8%     - 1565s
     0     0  698.77561    0 2085 1199.00000  698.77561  41.7%     - 1616s
     0     0  698.86736    0 2125 1199.00000  698.86736  41.7%     - 1642s
     0     0  698.87815    0 2140 1199.00000  698.87815  41.7%     - 1650s
     0     0  698.98397    0 2141 1199.00000  698.98397  41.7%     - 1678s
     0     0  699.03768    0 2129 1199.00000  699.03768  41.7%     - 1698s
     0     0  699.04777    0 2146 1199.00000  699.04777  41.7%     - 1706s
     0     0  699.25259    0 2129 1199.00000  699.25259  41.7%     - 1734s
     0     0  699.28970    0 2129 1199.00000  699.28970  41.7%     - 1752s
     0     0  699.29997    0 2111 1199.00000  699.29997  41.7%     - 1761s
     0     0  699.46287    0 2168 1199.00000  699.46287  41.7%     - 1795s
     0     0  699.49548    0 2163 1199.00000  699.49548  41.7%     - 1814s
     0     0  699.50559    0 2160 1199.00000  699.50559  41.7%     - 1824s
     0     0  700.06007    0 2104 1199.00000  700.06007  41.6%     - 1884s
     0     0  700.18424    0 2117 1199.00000  700.18424  41.6%     - 1912s
     0     0  700.21188    0 2115 1199.00000  700.21188  41.6%     - 1924s
     0     0  700.21974    0 2137 1199.00000  700.21974  41.6%     - 1930s
     0     0  700.44054    0 2120 1199.00000  700.44054  41.6%     - 1963s
     0     0  700.47097    0 2137 1199.00000  700.47097  41.6%     - 2016s
     0     0  700.47350    0 2137 1199.00000  700.47350  41.6%     - 2022s
     0     0  700.93716    0 2116 1199.00000  700.93716  41.5%     - 2068s
     0     0  701.00855    0 2113 1199.00000  701.00855  41.5%     - 2090s
     0     0  701.02351    0 2114 1199.00000  701.02351  41.5%     - 2099s
     0     0  701.08224    0 2114 1199.00000  701.08224  41.5%     - 2120s
     0     0  701.08224    0 2114 1199.00000  701.08224  41.5%     - 2136s
     0     2  701.10648    0 2103 1199.00000  701.10648  41.5%     - 2460s
     1     3  702.28552    1 2086 1199.00000  701.10648  41.5%  9897 2539s
     2     4  709.39138    1 1814 1199.00000  702.28555  41.4% 22178 2822s
     3     5  703.12651    2 2054 1199.00000  702.28586  41.4% 16870 2875s
     4     6  707.61297    2 1877 1199.00000  703.12655  41.4% 19701 3086s
     5     7  704.58929    3 2006 1199.00000  703.12655  41.4% 17208 3145s
     6     8  708.37345    3 1853 1199.00000  704.58929  41.2% 19694 3405s
     7     9  704.97333    4 2005 1199.00000  704.58929  41.2% 17496 3442s

Cutting planes:
  Gomory: 2
  Cover: 1
  MIR: 143
  StrongCG: 16
  Zero half: 73
  Mod-K: 8
  RLT: 672

Explored 8 nodes (360606 simplex iterations) in 3600.03 seconds
Thread count was 1 (of 40 available processors)

Solution count 1: 1199 

Time limit reached
Best objective 1.199000000000e+03, best bound 7.050000000000e+02, gap 41.2010%

User-callback calls 48839, time in user-callback 0.13 sec
